SCIP Status        : solving was interrupted [time limit reached]
Total Time         :    3600.01
  solving          :    3600.00
  presolving       :       0.35 (included in solving)
  reading          :       0.01
  copying          :       1.90 (52 #copies) (minimal 0.00, maximal 0.06, average 0.04)
Original Problem   :
  Problem name     : bbbenchmark/g05_80.0.cut
  Variables        : 81 (80 binary, 0 integer, 0 implicit integer, 1 continuous)
  Constraints      : 1 initial, 1 maximal
  Objective        : minimize, 1 non-zeros (abs.min = 1, abs.max = 1)
Presolved Problem  :
  Problem name     : t_bbbenchmark/g05_80.0.cut
  Variables        : 1609 (80 binary, 0 integer, 1527 implicit integer, 2 continuous)
  Constraints      : 1531 initial, 5024 maximal
  Objective        : minimize, 1 non-zeros (abs.min = 1, abs.max = 1)
  Nonzeros         : 6301 constraint, 162 clique table
Presolvers         :   ExecTime  SetupTime  Calls  FixedVars   AggrVars   ChgTypes  ChgBounds   AddHoles    DelCons    AddCons   ChgSides   ChgCoefs
  boundshift       :       0.00       0.00      0          0          0          0          0          0          0          0          0          0
  convertinttobin  :       0.00       0.00      0          0          0          0          0          0          0          0          0          0
  domcol           :       0.00       0.00      1          0          0          0          0          0          0          0          0          0
  dualagg          :       0.00       0.00      0          0          0          0          0          0          0          0          0          0
  dualcomp         :       0.00       0.00      1          0          0          0          0          0          0          0          0          0
  dualinfer        :       0.00       0.00      0          0          0          0          0          0          0          0          0          0
  dualsparsify     :       0.00       0.00      1          0          0          0          0          0          0          0          0          0
  gateextraction   :       0.00       0.00      0          0          0          0          0          0          0          0          0          0
  implics          :       0.00       0.00      2          0          0          0          0          0          0          0          0          0
  inttobinary      :       0.00       0.00      0          0          0          0          0          0          0          0          0          0
  qpkktref         :       0.00       0.00      0          0          0          0          0          0          0          0          0          0
  redvub           :       0.00       0.00      0          0          0          0          0          0          0          0          0          0
  sparsify         :       0.00       0.00      1          0          0          0          0          0          0          0          0          0
  stuffing         :       0.00       0.00      0          0          0          0          0          0          0          0          0          0
  trivial          :       0.00       0.00      4          0          0          0          0          0          0          0          0          0
  tworowbnd        :       0.00       0.00      0          0          0          0          0          0          0          0          0          0
  dualfix          :       0.00       0.00      4          0          0          0          0          0          0          0          0          0
  genvbounds       :       0.00       0.00      0          0          0          0          0          0          0          0          0          0
  probing          :       0.23       0.00      1          0          0          0          0          0          0          0          0          0
  pseudoobj        :       0.01       0.00      1          0          0          0          1          0          0          0          0          0
  symmetry         :       0.00       0.00      0          0          0          0          0          0          0          0          0          0
  vbounds          :       0.00       0.00      1          0          0          0          0          0          0          0          0          0
  varbound         :       0.00       0.00      2          0          0          0          0          0          0          0          0          0
  and              :       0.01       0.01      2          0          0          0          0          0          0          0          0          0
  linear           :       0.00       0.00      2          0          0          0          0          0          0          0          0          0
  logicor          :       0.00       0.00      0          0          0          0          0          0          0          0          0          0
  bounddisjunction :       0.00       0.00      0          0          0          0          0          0          0          0          0          0
  nonlinear        :       0.10       0.00      5          0          0          0          1          0          0       1530          0          0
  benders          :       0.00       0.00      0          0          0          0          0          0          0          0          0          0
  components       :       0.00       0.00      1          0          0          0          0          0          0          0          0          0
  root node        :          -          -      -          0          -          -         24          -          -          -          -          -
Constraints        :     Number  MaxNumber  #Separate #Propagate    #EnfoLP    #EnfoRelax  #EnfoPS    #Check   #ResProp    Cutoffs    DomReds       Cuts    Applied      Conss   Children
  benderslp        :          0          0          0          0      91658          0          0      11629          0          0          0          0          0          0          0
  integral         :          0          0          0          0      91658          0          0      11629          0          0       1137          0          0        280     182620
  varbound         :          1          1        220     571097          0          0          0        346          0          0      16431          0          0          0          0
  and              :       1527       1527     109091     702724          0          0          0        346     276766         38    3043061       2762       2396          0          0
  linear           :          3+        84        220     702702          0          0          0        344       1741        420      69607          0          0          0          0
  logicor          :          0+      3428          0     158167          0          0          0          0         40        812        328          0          0          0          0
  bounddisjunction :          0+       197          0      72986          0          0          0          0          4          6         62          0          0          0          0
  benders          :          0          0          0          0          0          0          0         42          0          0          0          0          0          0          0
  countsols        :          0          0          0          0          0          0          0         42          0          0          0          0          0          0          0
  components       :          0          0          0          0          0          0          0          0          0          0          0          0          0          0          0
Constraint Timings :  TotalTime  SetupTime   Separate  Propagate     EnfoLP     EnfoPS     EnfoRelax   Check    ResProp    SB-Prop
  benderslp        :       0.04       0.00       0.00       0.00       0.03       0.00       0.00       0.01       0.00       0.00
  integral         :      55.81       0.00       0.00       0.00      55.71       0.00       0.00       0.10       0.00       0.00
  varbound         :       0.47       0.00       0.00       0.47       0.00       0.00       0.00       0.00       0.00       0.00
  and              :      75.95       0.01      46.66      28.98       0.00       0.00       0.00       0.05       0.12       0.13
  linear           :       2.05       0.00       0.07       1.94       0.00       0.00       0.00       0.02       0.02       0.00
  logicor          :       5.87       0.00       0.00       5.85       0.00       0.00       0.00       0.00       0.00       0.02
  bounddisjunction :       0.45       0.00       0.00       0.45       0.00       0.00       0.00       0.00       0.00       0.00
  benders          :       0.00       0.00       0.00       0.00       0.00       0.00       0.00       0.00       0.00       0.00
  countsols        :       0.00       0.00       0.00       0.00       0.00       0.00       0.00       0.00       0.00       0.00
  components       :       0.24       0.00       0.00       0.24       0.00       0.00       0.00       0.00       0.00       0.00
Propagators        : #Propagate   #ResProp    Cutoffs    DomReds
  dualfix          :          4          0          0          0
  genvbounds       :          0          0          0          0
  nlobbt           :          0          0          0          0
  obbt             :          0          0          0          0
  probing          :          0          0          0          0
  pseudoobj        :     433634        324         88        370
  redcost          :     220360          0          0     155118
  rootredcost      :         10          0          0          0
  symmetry         :          0          0          0          0
  vbounds          :      93182          0          0          0
Propagator Timings :  TotalTime  SetupTime   Presolve  Propagate    ResProp    SB-Prop
  dualfix          :       0.00       0.00       0.00       0.00       0.00       0.00
  genvbounds       :       0.40       0.00       0.00       0.39       0.00       0.01
  nlobbt           :       0.00       0.00       0.00       0.00       0.00       0.00
  obbt             :       0.01       0.00       0.00       0.01       0.00       0.00
  probing          :       0.23       0.00       0.23       0.00       0.00       0.00
  pseudoobj        :       0.67       0.00       0.01       0.66       0.00       0.00
  redcost          :      11.08       0.00       0.00      11.07       0.00       0.01
  rootredcost      :       0.53       0.00       0.00       0.53       0.00       0.00
  symmetry         :       0.28       0.00       0.00       0.28       0.00       0.00
  vbounds          :       0.59       0.00       0.00       0.58       0.00       0.01
Conflict Analysis  :       Time      Calls    Success    DomReds  Conflicts   Literals    Reconvs ReconvLits   Dualrays   Nonzeros   LP Iters   (pool size: [10000,10000])
  propagation      :       0.05        974        827          -       1479       54.4         13       65.2          -          -          -
  infeasible LP    :       0.29        368        368          -       2090       57.3          7       63.1        431       69.0          0
  bound exceed. LP :      17.04       8390       5541          -      84717       75.4         26       50.7          0        0.0      41727
  strong branching :       0.00          0          0          -          0        0.0          0        0.0          -          -          0
  pseudo solution  :       0.00          0          0          -          0        0.0          0        0.0          -          -          -
  applied globally :       0.43          -          -          0      27495       81.2          -          -        431          -          -
  applied locally  :          -          -          -          0          0        0.0          -          -          0          -          -
Separators         :   ExecTime  SetupTime      Calls  RootCalls    Cutoffs    DomReds  FoundCuts ViaPoolAdd  DirectAdd    Applied ViaPoolApp  DirectApp      Conss
  cut pool         :       4.59          -      26818        247          -          -      34616    1173601          -          -          -          -          -    (maximal pool size:       2454)
  aggregation      :     338.16       0.00       6211        220          0          0        457       1403          0        592        592          0          0
  > cmir           :          -          -          -          -          -          -          -       1403          0        592        592          0          -
  > flowcover      :          -          -          -          -          -          -          -          0          0          0          0          0          -
  > knapsackcover  :          -          -          -          -          -          -          -          0          0          0          0          0          -
  cgmip            :       0.00       0.00          0          0          0          0          0          0          0          0          0          0          0
  clique           :       0.00       0.00        220        220          0          0          0          0          0          0          0          0          0
  closecuts        :       0.00       0.00          0          0          0          0          0          0          0          0          0          0          0
  convexproj       :       0.00       0.00          0          0          0          0          0          0          0          0          0          0          0
  disjunctive      :       0.00       0.00          0          0          0          0          0          0          0          0          0          0          0
  eccuts           :       0.00       0.00          0          0          0          0          0          0          0          0          0          0          0
  gauge            :       0.00       0.00          0          0          0          0          0          0          0          0          0          0          0
  gomory           :       0.00       0.00          0          0          0          0          0          0          0          0          0          0          0
  > gomorymi       :          -          -          -          -          -          -          -          0          0          0          0          0          -
  > strongcg       :          -          -          -          -          -          -          -          0          0          0          0          0          -
  impliedbounds    :       0.24       0.00       6211        220          0          0         14          2          0          1          1          0          0
  interlattice     :       0.00       0.00          0          0          0          0          0          0          0          0          0          0          0
  interminor       :       0.00       0.00          0          0          0          0          0          0          0          0          0          0          0
  intersub         :       2.22       0.00        160        160          0          0        160          0        160        160          0        160          0
  intobj           :       0.00       0.00          0          0          0          0          0          0          0          0          0          0          0
  mcf              :       0.00       0.00          1          1          0          0          0          0          0          0          0          0          0
  minor            :       0.00       0.00          0          0          0          0          0          0          0          0          0          0          0
  mixing           :       0.00       0.00       6211        220          0          0          0          0          0          0          0          0          0
  oddcycle         :       0.00       0.00          0          0          0          0          0          0          0          0          0          0          0
  rapidlearning    :       0.00       0.00          0          0          0          0          0          0          0          0          0          0          0
  rlt              :       0.00       0.00         10         10          0          0          0          0          0          0          0          0          0
  zerohalf         :      40.63       0.00       5742         20          0          0      34145    1172196          0     170222     170222          0          0
Cutselectors       :   ExecTime  SetupTime      Calls  RootCalls   Selected     Forced   Filtered  RootSelec   RootForc   RootFilt 
  hybrid           :       0.97       0.00      15135        218     173371          0    1003152        370          0         44
Pricers            :   ExecTime  SetupTime      Calls       Vars
  problem variables:       0.00          -          0          0
Branching Rules    :   ExecTime  SetupTime   BranchLP  BranchExt   BranchPS    Cutoffs    DomReds       Cuts      Conss   Children
  allfullstrong    :       0.00       0.00          0          0          0          0          0          0          0          0
  cloud            :       0.00       0.00          0          0          0          0          0          0          0          0
  distribution     :       0.00       0.00          0          0          0          0          0          0          0          0
  fullstrong       :       0.00       0.00          0          0          0          0          0          0          0          0
  inference        :       0.00       0.00          0          0          0          0          0          0          0          0
  leastinf         :       0.00       0.00          0          0          0          0          0          0          0          0
  lookahead        :       0.00       0.00          0          0          0          0          0          0          0          0
  mostinf          :       0.00       0.00          0          0          0          0          0          0          0          0
  multaggr         :       0.00       0.00          0          0          0          0          0          0          0          0
  nodereopt        :       0.00       0.00          0          0          0          0          0          0          0          0
  pscost           :       0.00       0.00          0          0          0          0          0          0          0          0
  random           :       0.00       0.00          0          0          0          0          0          0          0          0
  relpscost        :      55.45       0.00      91658          0          0          0       1137          0        280     182620
  vanillafullstrong:       0.00       0.00          0          0          0          0          0          0          0          0
Primal Heuristics  :   ExecTime  SetupTime      Calls      Found       Best
  LP solutions     :       0.00          -          -          0          0
  relax solutions  :       0.00          -          -          0          0
  pseudo solutions :       0.00          -          -          0          0
  strong branching :       0.01          -          -          0          0
  actconsdiving    :       0.00       0.00          0          0          0
  adaptivediving   :       3.63       0.00         35          0          0
  alns             :       1.65       0.00         17          1          1
  bound            :       0.00       0.00          0          0          0
  clique           :       0.01       0.00          1          0          0
  coefdiving       :       0.00       0.00          0          0          0
  completesol      :       0.00       0.00          0          0          0
  conflictdiving   :      62.84       0.00        846          0          0
  crossover        :       0.85       0.00          6          1          1
  dins             :       0.00       0.00          0          0          0
  distributiondivin:      66.85       0.00        465          0          0
  dps              :       0.00       0.00          0          0          0
  dualval          :       0.00       0.00          0          0          0
  farkasdiving     :       0.03       0.00          0          0          0
  feaspump         :       1.25       0.00          1          1          1
  fixandinfer      :       0.00       0.00          0          0          0
  fracdiving       :      51.27       0.00        591          0          0
  gins             :       0.13       0.00          0          0          0
  guideddiving     :      50.54       0.00        631          3          3
  indicator        :       0.12       0.00          0          0          0
  indicatordiving  :       0.00       0.00          0          0          0
  intdiving        :       0.00       0.00          0          0          0
  intshifting      :       0.36       0.00         34          0          0
  linesearchdiving :      46.70       0.00        582          0          0
  localbranching   :       0.00       0.00          0          0          0
  locks            :       0.00       0.00          1          0          0
  lpface           :       0.19       0.00          0          0          0
  mpec             :     350.80       0.00         11          0          0
  multistart       :       0.00       0.00          0          0          0
  mutation         :       0.00       0.00          0          0          0
  nlpdiving        :      22.58       0.00         10          0          0
  objpscostdiving  :      70.66       0.00        106         18          1
  octane           :       0.00       0.00          0          0          0
  ofins            :       0.14       0.00          0          0          0
  oneopt           :       0.12       0.00         19          0          0
  padm             :       0.00       0.00          0          0          0
  proximity        :       0.00       0.00          0          0          0
  pscostdiving     :      48.76       0.00        550          2          2
  randrounding     :       1.38       0.00      11584          0          0
  rens             :       0.00       0.00          0          0          0
  reoptsols        :       0.00       0.00          0          0          0
  repair           :       0.00       0.00          0          0          0
  rins             :      10.79       0.00         28          1          1
  rootsoldiving    :      34.18       0.00         44          2          0
  rounding         :       1.23       0.00       4466          0          0
  shiftandpropagate:       0.00       0.00          0          0          0
  shifting         :      57.53       0.00      15407          8          8
  simplerounding   :       0.14       0.00          0          0          0
  subnlp           :     142.47       0.00          0          0          0
  trivial          :       0.01       0.00          2          2          2
  trivialnegation  :       0.00       0.00          0          0          0
  trustregion      :       0.00       0.00          0          0          0
  trysol           :       0.12       0.00          0          0          0
  twoopt           :       0.00       0.00          0          0          0
  undercover       :       2.19       0.00          1          0          0
  vbounds          :       0.00       0.00          0          0          0
  veclendiving     :      50.39       0.00        618          0          0
  zeroobj          :       0.00       0.00          0          0          0
  zirounding       :       0.49       0.00       1000          0          0
  other solutions  :          -          -          -          0          -
Diving (single)    :      Calls      Nodes   LP Iters Backtracks  Conflicts   MinDepth   MaxDepth   AvgDepth  RoundSols  NLeafSols  MinSolDpt  MaxSolDpt  AvgSolDpt
  actconsdiving    :          0          -          -          -          -          -          -          -          -          -          -          -          -
  coefdiving       :          0          -          -          -          -          -          -          -          -          -          -          -          -
  conflictdiving   :        846      27321     570378        963      19344         41         71       52.1          0          -          -          -          -
  distributiondivin:        465      11253     418152        501       5143         37         76       43.7          0          -          -          -          -
  farkasdiving     :          0          -          -          -          -          -          -          -          -          -          -          -          -
  fracdiving       :        591      52332     416149        608       6657         44        355      108.3          0          -          -          -          -
  guideddiving     :        631      44538     434473        509       6683         43        307       90.6          0          3         73         76       74.3
  indicatordiving  :          0          -          -          -          -          -          -          -          -          -          -          -          -
  linesearchdiving :        582      19311     416161        698      12231         37         81       52.8          0          -          -          -          -
  pscostdiving     :        550      16958     431769        570       9480         42         65       50.5          0          2         57         60       58.5
  veclendiving     :        618      20982     416276        725      23394         40         77       53.3          0          -          -          -          -
Diving (adaptive)  :      Calls      Nodes   LP Iters Backtracks  Conflicts   MinDepth   MaxDepth   AvgDepth  RoundSols  NLeafSols  MinSolDpt  MaxSolDpt  AvgSolDpt
  actconsdiving    :          9        224       7353          7         80         42         47       44.1          0          -          -          -          -
  coefdiving       :         15        516       9536         18        624         43         62       55.5          0          -          -          -          -
  conflictdiving   :          0          -          -          -          -          -          -          -          -          -          -          -          -
  distributiondivin:          0          -          -          -          -          -          -          -          -          -          -          -          -
  farkasdiving     :          0          -          -          -          -          -          -          -          -          -          -          -          -
  fracdiving       :          1        183        678          1         10        203        203      203.0          0          -          -          -          -
  guideddiving     :          3        354       1753          6         35         62        272      139.0          0          -          -          -          -
  indicatordiving  :          0          -          -          -          -          -          -          -          -          -          -          -          -
  linesearchdiving :          0          -          -          -          -          -          -          -          -          -          -          -          -
  pscostdiving     :          1         27        336          1         20         61         61       61.0          0          -          -          -          -
  veclendiving     :          6        207       4780          8        281         39         63       51.8          0          -          -          -          -
Neighborhoods      :      Calls  SetupTime  SolveTime SolveNodes       Sols       Best       Exp3  EpsGreedy        UCB TgtFixRate  Opt  Inf Node Stal  Sol  Usr Othr Actv
  rens             :          2       0.10       0.02          0          0          0    0.00000   -1.00000    0.54809      0.550    0    2    0    0    0    0    0    1
  rins             :          2       0.07       0.03          5          0          0    0.00000   -1.00000    0.54101      0.550    0    2    0    0    0    0    0    1
  mutation         :          3       0.16       0.60        412          1          1    0.00000   -1.00000    0.50513      0.662    1    1    0    1    0    0    0    1
  localbranching   :          2       0.07       0.01          1          0          0    0.00000   -1.00000    0.54667      0.550    0    2    0    0    0    0    0    1
  crossover        :          2       0.06       0.03          7          0          0    0.00000   -1.00000    0.53818      0.550    0    2    0    0    0    0    0    1
  proximity        :          2       0.09       0.02          1          0          0    0.00000   -1.00000    0.54659      0.550    0    2    0    0    0    0    0    1
  zeroobjective    :          2       0.06       0.02          1          0          0    0.00000   -1.00000    0.54667      0.550    0    2    0    0    0    0    0    1
  dins             :          2       0.15       0.02          1          0          0    0.00000   -1.00000    0.54659      0.550    0    2    0    0    0    0    0    1
  trustregion      :          0       0.00       0.00          0          0          0    0.00000   -1.00000    1.00000      0.900    0    0    0    0    0    0    0    0
Expressions        :   #IntEval  IntEvalTi   #RevProp  RevPropTi    DomReds    Cutoffs  #Estimate  EstimTime  Branching  #Simplify SimplifyTi Simplified
  pow              :          0       0.00          0       0.00          0          0          0       0.00          0          0       0.00          0
  prod             :       6320       0.01          0       0.00          0          0          0       0.00          0       4687       0.00          0
  sum              :          8       0.00          2       0.00          0          0          0       0.00          0          3       0.03          2
  var              :       5476       0.00          0       0.00          0          0          0       0.00          0      11145       0.02          0
  varidx           :          0       0.00          0       0.00          0          0          0       0.00          0          0       0.00          0
LP                 :       Time      Calls Iterations  Iter/call   Iter/sec  Time-0-It Calls-0-It    ItLimit
  primal LP        :     135.17       9588          0       0.00       0.00     135.07       9588
  dual LP          :    1680.59     182837    8162818      50.78    4857.11      10.73      22091
  lex dual LP      :       0.00          0          0       0.00          -
  barrier LP       :       0.00          0          0       0.00          -       0.00          0
  resolve instable :       0.00          0          0       0.00          -
  diving/probing LP:     410.17      19395    3581338     184.65    8731.35
  strong branching :      34.83       1137     160790     141.42    4616.42          -          -        144
    (at root node) :          -         19      18551     976.37          -
  conflict analysis:       7.21       4326      41727       9.65    5787.38
NLP relaxation     :
  solve time       :      22.58 (10 calls)
  convexity        :  nonconvex (4 linear rows, 0 convex ineq., 0 nonconvex ineq., 1527 nonlinear eq. or two-sided ineq.)
NLP Solvers        :  #Problems  ProblemTi    #Solves  SolveTime      #Iter  Time/Iter      #Okay #TimeLimit #IterLimit #LObjLimit #Interrupt  #NumError #EvalError  #OutOfMem #LicenseEr #OtherTerm   #GlobOpt    #LocOpt  #Feasible #LocInfeas #GlobInfea #Unbounded   #Unknown
  ipopt            :         12       7.40         40     373.58       2180       0.17         40          0          0          0          0          0          0          0          0          0          0          0          0         30          0          0         10
B&B Tree           :
  number of runs   :          1
  nodes            :     146071 (91310 internal, 54761 leaves)
  feasible leaves  :          0
  infeas. leaves   :        897
  objective leaves :      53863
  nodes (total)    :     146071 (91310 internal, 54761 leaves)
  nodes left       :      36462
  max depth        :         79
  max depth (total):         79
  backtracks       :      32822 (22.5%)
  early backtracks :          0 (0.0%)
  nodes exc. ref.  :          0 (0.0%)
  delayed cutoffs  :         89
  repropagations   :       5187 (5514 domain reductions, 26 cutoffs)
  avg switch length:       4.81
  switching time   :     167.47
Estim. Tree Size   :     292318
Estimation Tree    : 182621 nodes (146159 visited, 91310 internal, 54849 leaves, 36462 open), weight: 0.0000 completed 0.0284
Estimations        :      estim      value      trend resolution     smooth
  wbe              : 41098776871768          -          -          -          -
  tree-profile     :         -1          -          -          -          -
  gap              :    1830306    0.73721    0.00002         64    1784924
  tree-weight      :     292318    0.00000    0.00000         64     292214
  leaf-frequency   :    1246899    0.37527    0.00001         64    1247469
  ssg              :    6776063    0.95523   -0.00002         64    6780153
  open-nodes       :     292318 36462.00000   16.32269         64     292214
Root Node          :
  First LP value   : -1.00000000000000e+00
  First LP Iters   :       1045 (14928.57 Iter/sec)
  First LP Time    :       0.07
  Final Dual Bound : -9.06036966047713e-01
  Final Root Iters :      18074
  Root LP Estimate : -2.45682815722301e-01
Solution           :
  Solutions found  :         39 (20 improvements)
  First Solution   : +1.00000000000000e+05   (in run 1, after 0 nodes, 0.04 seconds, depth 0, found by <trivial>)
  Gap First Sol.   :   infinite
  Gap Last Sol.    :      42.03 %
  Primal Bound     : -5.72151898734176e-01   (in run 1, after 60814 nodes, 1950.82 seconds, depth 40, found by <alns>)
  Dual Bound       : -7.76107594936710e-01
  Gap              :      35.65 %
Integrals          :      Total       Avg%
  primal-dual      :  114726.96      31.87
  primal-ref       :          -          - (not evaluated)
  dual-ref         :          -          - (not evaluated)
